
Gurobi 6.0.5 (linux64) logging started Fri Oct 20 10:58:19 2017


Gurobi 6.0.5 (linux64) logging started Fri Oct 20 10:58:33 2017


Gurobi 6.0.5 (linux64) logging started Fri Oct 20 10:58:48 2017


Gurobi 6.0.5 (linux64) logging started Fri Oct 20 10:59:05 2017


Gurobi 6.0.5 (linux64) logging started Fri Oct 20 10:59:26 2017


Gurobi 6.0.5 (linux64) logging started Fri Oct 20 10:59:51 2017


Gurobi 6.0.5 (linux64) logging started Fri Oct 20 11:00:19 2017


Gurobi 6.0.5 (linux64) logging started Fri Oct 20 11:00:56 2017


Gurobi 6.0.5 (linux64) logging started Fri Oct 20 11:01:40 2017


Gurobi 6.0.5 (linux64) logging started Fri Oct 20 11:02:55 2017


Gurobi 6.0.5 (linux64) logging started Fri Oct 20 11:03:08 2017


Gurobi 6.0.5 (linux64) logging started Fri Oct 20 11:03:24 2017


Gurobi 6.0.5 (linux64) logging started Fri Oct 20 11:03:41 2017


Gurobi 6.0.5 (linux64) logging started Fri Oct 20 11:04:00 2017


Gurobi 6.0.5 (linux64) logging started Fri Oct 20 11:04:23 2017


Gurobi 6.0.5 (linux64) logging started Fri Oct 20 11:04:52 2017


Gurobi 6.0.5 (linux64) logging started Fri Oct 20 11:05:25 2017


Gurobi 6.0.5 (linux64) logging started Fri Oct 20 11:06:06 2017

